HUN,8,6,852
2,45,0,60,1,15,4,41,3,28,5,91
5,96,1,18,4,6,2,26,3,60,0,94
1,15,2,66,5,49,0,10,3,3,4,24
0,59,1,36,3,22,4,3,5,11,2,83
5,14,1,26,3,70,0,47,2,21,4,36
5,43,2,86,3,74,0,19,1,26,4,83
2,44,5,32,0,71,4,10,3,38,1,47
1,84,5,13,2,19,4,1,3,33,0,96
